p tw 331 843
1 2
1 96
1 97
1 98
2 5
2 6
2 7
3 4
3 5
3 9
4 5
4 9
4 11
5 6
5 7
5 9
5 10
6 7
6 8
6 99
6 100
6 101
7 8
8 16
8 17
8 18
9 10
10 15
10 16
10 20
11 14
11 15
11 22
12 13
12 14
12 24
13 14
13 24
13 26
14 15
14 22
14 24
14 25
15 16
15 20
15 22
15 23
16 17
16 18
16 20
16 21
17 18
17 19
17 102
17 103
17 104
18 19
19 33
19 34
19 35
20 21
21 32
21 33
21 37
22 23
23 31
23 32
23 39
24 25
25 30
25 31
25 41
26 29
26 30
26 43
27 28
27 29
27 45
28 29
28 45
29 30
29 43
29 45
29 46
30 31
30 41
30 43
30 44
31 32
31 39
31 41
31 42
32 33
32 37
32 39
32 40
33 34
33 35
33 37
33 38
34 35
34 36
34 105
34 106
34 107
35 36
36 51
36 52
36 53
37 38
38 50
38 51
38 55
39 40
40 49
40 50
40 57
41 42
42 48
42 49
42 59
43 44
44 47
44 48
44 61
45 46
46 47
47 48
47 61
48 49
48 59
48 61
48 62
49 50
49 57
49 59
49 60
50 51
50 55
50 57
50 58
51 52
51 53
51 55
51 56
52 53
52 54
52 108
52 109
52 110
53 54
54 66
54 67
54 68
55 56
56 65
56 66
56 70
57 58
58 64
58 65
58 72
59 60
60 63
60 64
60 74
61 62
62 63
63 64
63 74
64 65
64 72
64 74
64 75
65 66
65 70
65 72
65 73
66 67
66 68
66 70
66 71
67 68
67 69
67 111
67 112
67 113
68 69
69 78
69 79
69 80
70 71
71 77
71 78
71 82
72 73
73 76
73 77
73 84
74 75
75 76
76 77
76 84
77 78
77 82
77 84
77 85
78 79
78 80
78 82
78 83
79 80
79 81
79 114
79 115
79 116
80 81
81 87
81 88
81 89
82 83
83 86
83 87
83 91
84 85
85 86
86 87
86 91
87 88
87 89
87 91
87 92
88 89
88 90
88 117
88 118
88 119
89 90
90 93
90 94
90 95
91 92
92 93
93 94
93 95
94 95
94 120
94 121
94 122
96 97
96 98
97 98
97 99
97 127
97 128
97 129
98 99
99 100
99 101
100 101
100 102
100 130
100 131
100 132
101 102
102 103
102 104
103 104
103 105
103 133
103 134
103 135
104 105
105 106
105 107
106 107
106 108
106 136
106 137
106 138
107 108
108 109
108 110
109 110
109 111
109 139
109 140
109 141
110 111
111 112
111 113
112 113
112 114
112 142
112 143
112 144
113 114
114 115
114 116
115 116
115 117
115 145
115 146
115 147
116 117
117 118
117 119
118 119
118 120
118 148
118 149
118 150
119 120
120 121
120 122
121 122
121 151
121 152
121 153
123 124
123 154
123 155
124 154
124 155
125 156
125 157
125 158
126 127
126 159
126 160
126 161
127 128
127 129
128 129
128 130
128 162
128 163
128 164
129 130
130 131
130 132
131 132
131 133
131 165
131 166
131 167
132 133
133 134
133 135
134 135
134 136
134 168
134 169
134 170
135 136
136 137
136 138
137 138
137 139
137 171
137 172
137 173
138 139
139 140
139 141
140 141
140 142
140 174
140 175
140 176
141 142
142 143
142 144
143 144
143 145
143 177
143 178
143 179
144 145
145 146
145 147
146 147
146 148
146 180
146 181
146 182
147 148
148 149
148 150
149 150
149 151
149 183
149 184
149 185
150 151
151 152
151 153
152 153
152 186
152 187
152 188
154 155
154 156
154 157
154 189
154 190
155 156
156 157
156 158
157 158
157 159
157 189
157 190
158 159
159 160
159 161
160 161
160 162
160 191
160 192
160 193
161 162
162 163
162 164
163 164
163 165
163 194
163 195
163 196
164 165
165 166
165 167
166 167
166 168
166 197
166 198
166 199
167 168
168 169
168 170
169 170
169 171
169 200
169 201
169 202
170 171
171 172
171 173
172 173
172 174
172 203
172 204
172 205
173 174
174 175
174 176
175 176
175 177
175 206
175 207
175 208
176 177
177 178
177 179
178 179
178 180
178 209
178 210
178 211
179 180
180 181
180 182
181 182
181 183
181 212
181 213
181 214
182 183
183 184
183 185
184 185
184 186
184 215
184 216
184 217
185 186
186 187
186 188
187 188
187 218
187 219
187 220
189 190
189 191
189 192
189 221
189 222
190 191
191 192
191 193
192 193
192 194
192 221
192 222
193 194
194 195
194 196
195 196
195 197
195 223
195 224
195 225
196 197
197 198
197 199
198 199
198 200
198 226
198 227
198 228
199 200
200 201
200 202
201 202
201 203
201 229
201 230
201 231
202 203
203 204
203 205
204 205
204 206
204 232
204 233
204 234
205 206
206 207
206 208
207 208
207 209
207 235
207 236
207 237
208 209
209 210
209 211
210 211
210 212
210 238
210 239
210 240
211 212
212 213
212 214
213 214
213 215
213 241
213 242
213 243
214 215
215 216
215 217
216 217
216 218
216 244
216 245
216 246
217 218
218 219
218 220
219 220
219 247
221 222
221 223
221 224
221 248
221 249
222 223
223 224
223 225
224 225
224 226
224 248
224 249
225 226
226 227
226 228
227 228
227 229
227 250
227 251
227 252
228 229
229 230
229 231
230 231
230 232
230 253
230 254
230 255
231 232
232 233
232 234
233 234
233 235
233 256
233 257
233 258
234 235
235 236
235 237
236 237
236 238
236 259
236 260
236 261
237 238
238 239
238 240
239 240
239 241
239 262
239 263
239 264
240 241
241 242
241 243
242 243
242 244
242 265
242 266
242 267
243 244
244 245
244 246
245 246
245 247
245 268
245 269
245 270
246 247
248 249
248 250
248 251
248 271
248 272
249 250
250 251
250 252
251 252
251 253
251 271
251 272
252 253
253 254
253 255
254 255
254 256
254 273
254 274
254 275
255 256
256 257
256 258
257 258
257 259
257 276
257 277
257 278
258 259
259 260
259 261
260 261
260 262
260 279
260 280
260 281
261 262
262 263
262 264
263 264
263 265
263 282
263 283
263 284
264 265
265 266
265 267
266 267
266 268
266 285
266 286
266 287
267 268
268 269
268 270
269 270
269 288
271 272
271 273
271 274
271 289
271 290
272 273
273 274
273 275
274 275
274 276
274 289
274 290
275 276
276 277
276 278
277 278
277 279
277 291
277 292
277 293
278 279
279 280
279 281
280 281
280 282
280 294
280 295
280 296
281 282
282 283
282 284
283 284
283 285
283 297
283 298
283 299
284 285
285 286
285 287
286 287
286 288
286 300
286 301
286 302
287 288
289 290
289 291
289 292
289 303
289 304
290 291
291 292
291 293
292 293
292 294
292 303
292 304
293 294
294 295
294 296
295 296
295 297
295 305
295 306
295 307
296 297
297 298
297 299
298 299
298 300
298 308
298 309
298 310
299 300
300 301
300 302
301 302
301 311
301 312
303 304
303 305
303 306
303 313
303 314
304 305
305 306
305 307
306 307
306 308
306 313
306 314
307 308
308 309
308 310
309 310
309 311
309 315
309 316
309 317
310 311
311 312
312 318
312 319
312 320
313 314
313 315
313 316
313 321
313 322
314 315
315 316
315 317
316 317
316 318
316 321
316 322
317 318
318 319
318 320
319 320
319 323
319 324
319 325
321 322
321 323
321 324
321 326
321 327
322 323
323 324
323 325
324 325
324 326
324 327
326 327
326 328
326 329
326 330
326 331
327 328
328 329
329 330
329 331
330 331
